NAME : problems/30-tsp/instance-48.tsp
COMMENT : No Comment
TYPE : TSP
DIMENSION: 30
EDGE_WEIGHT_TYPE : EUC_2D
NODE_COORD_SECTION
1 1252 252 
2 3745 7574 
3 6775 1023 
4 8851 198 
5 6611 1436 
6 7455 3810 
7 1981 2223 
8 212 9380 
9 5772 4815 
10 3662 2803 
11 655 6435 
12 4350 6723 
13 2258 3419 
14 9765 8123 
15 1920 3127 
16 9594 6802 
17 1458 3417 
18 6893 6489 
19 6744 8123 
20 3835 9808 
21 439 5397 
22 7031 341 
23 5413 4246 
24 125 569 
25 9546 5344 
26 6683 2935 
27 8491 1329 
28 3535 4095 
29 1811 1519 
30 661 434 
EOF
